p cnf 12 50 
7 1 -4 0
1 5 9 0
12 9 7 0
-12 5 8 0
-3 -11 -4 0
-9 2 7 0
-12 -3 7 0
-7 9 -5 0
1 -10 6 0
-12 -7 -10 0
-7 4 2 0
12 8 -6 0
9 2 3 0
-12 -3 1 0
-9 6 5 0
-3 -7 -8 0
-7 -8 9 0
-3 -4 10 0
-6 -9 3 0
9 8 2 0
-2 3 -12 0
4 -10 -1 0
-10 -3 4 0
11 7 -3 0
1 -4 8 0
9 10 8 0
12 1 10 0
-4 -8 6 0
8 -9 -6 0
-2 -4 5 0
9 -12 -1 0
8 6 5 0
-3 9 -12 0
9 2 10 0
-6 -2 11 0
11 10 -1 0
-7 12 -10 0
-7 2 -1 0
-10 -4 -2 0
7 1 -3 0
2 -6 1 0
-12 -6 2 0
1 -7 -2 0
12 5 -9 0
8 -12 -1 0
7 -6 2 0
-1 -11 8 0
8 3 -11 0
-3 -5 -10 0
-2 11 -9 0
